%NProcShared=4
#t hf/3-21g opt 
 
fosfina
 
0 1
P         -0.76475        1.36288        0.00000
H          0.61525        1.36288        0.00000
H         -1.22475        2.28961       -0.91322
H         -1.22476        1.69039        1.25918

