%NProcShared=4
#t hf/3-21g sp 
 
fosfina 1e-
 
1 2
15     0.000000  -0.000017     0.121577
1     1.057749  -0.610765     -0.607935
1     -1.057901  -0.610501     -0.607935
1     0.000152  1.221516     -0.607786

