%NProcShared=4
#t hf/3-21g sp 
 
h2s2 1e+
 
-1 2
16     0.000000  1.147978     -0.000000
16     -0.000000  -1.147978     -0.000000
1     1.347868  1.235178     -0.000000
1     -1.347868  -1.235178     -0.000000

