%NProcShared=4
#t hf/3-21g opt freq 
 
lih
 
0 1
Li         1.39765        4.30035        0.00000
H          2.98765        4.30035        0.00000

