%NProcShared=4
#t pbepbe/3-21g sp 
 
lih 1e-
 
1 2
3     0.000000  0.000000     0.411906
1     0.000000  0.000000     -1.235718

