%NProcShared=4
#t hf/3-21g sp 
 
lih 1e+
 
-1 2
3     0.000000  0.000000     0.409988
1     0.000000  0.000000     -1.229963

