%NProcShared=4
#t hf/3-21g sp 
 
peroxide 1e-
 
1 2
8     0.722878  -0.141034     -0.000001
8     -0.722878  0.141034     -0.000001
1     1.061418  0.768409     0.000004
1     -1.061418  -0.768408     0.000004

