%NProcShared=4
#t hf/3-21g opt freq 
 
peroxide
 
0 1
O         -0.89661        1.38934        0.00000
O          0.07339        1.38934        0.00000
H         -1.21994        2.07981        0.59968
H          0.39672        0.69888       -0.59968

